NAME : gr137
TYPE : OP
DIMENSION : 137
COST_LIMIT : 34927
ROUTE_NODES : 70
ROUTE_SCORE : 4099
ROUTE_COST : 34907
NODE_SEQUENCE_SECTION
1
2
3
4
5
18
20
21
22
23
25
28
52
53
57
56
55
59
60
62
63
64
65
66
67
68
69
70
71
89
91
93
94
96
99
100
101
103
102
126
127
128
133
134
135
83
84
85
81
86
82
87
77
76
74
73
72
50
49
44
43
38
37
36
30
29
10
8
9
6
-1
DEPOT_SECTION
1
-1
EOF
